p cnf 283 1985
100 114 243 265 0
81 96 116 117 0
53 125 135 149 159 0
93 95 129 140 0
89 105 138 143 0
43 87 98 222 0
41 78 122 224 0
120 142 145 227 0
72 128 230 0
152 155 278 0
90 157 0
151 160 161 0
124 156 166 0
141 169 171 173 174 0
109 176 178 179 0
101 132 181 0
75 76 126 146 0
67 69 70 74 148 0
62 63 65 0
60 61 112 0
55 57 59 84 130 0
52 54 115 134 0
49 50 51 123 164 0
48 91 94 139 167 172 0
45 46 47 137 0
42 44 86 103 107 0
82 121 131 0
39 40 118 0
37 38 66 68 71 0
31 32 33 34 35 0
26 27 28 29 30 0
22 23 99 182 0
183 185 189 190 0
191 192 0
175 193 194 196 0
110 177 197 198 0
133 180 200 201 202 0
77 203 205 206 207 0
147 208 209 210 0
64 211 212 0
213 214 215 0
217 218 0
88 113 220 0
56 58 85 0
136 150 221 261 0
83 102 0
73 144 0
153 223 225 0
119 228 0
127 231 0
184 186 233 0
234 235 0
163 238 0
111 239 240 0
168 241 0
-96 -243 0
-135 -243 0
-242 -243 0
-95 -243 0
-96 -135 0
-96 -242 0
-95 -96 0
-135 -242 0
-95 -135 0
-95 -242 0
-169 -247 0
-109 -169 0
-101 -169 0
-169 -246 0
-109 -247 0
-101 -247 0
-246 -247 0
-101 -109 0
-109 -246 0
-101 -246 0
-38 -250 0
-35 -38 0
-23 -38 0
-35 -250 0
-23 -250 0
-23 -35 0
-175 -197 0
-175 -180 0
-175 -203 0
-180 -197 0
-197 -203 0
-180 -203 0
-64 -213 0
-64 -217 0
-64 -220 0
-58 -64 0
-213 -217 0
-213 -220 0
-58 -213 0
-217 -220 0
-58 -217 0
-58 -220 0
-102 -108 0
-79 -108 0
-108 -144 0
-108 -223 0
-79 -102 0
-102 -144 0
-102 -223 0
-79 -144 0
-79 -223 0
-144 -223 0
-169 -243 0
-64 -243 0
-108 -243 0
-64 -169 0
-108 -169 0
-64 -108 0
-96 -247 0
-96 -213 0
-96 -102 0
-213 -247 0
-102 -247 0
-102 -213 0
-109 -135 0
-38 -135 0
-135 -175 0
-135 -217 0
-79 -135 0
-38 -109 0
-109 -175 0
-109 -217 0
-79 -109 0
-38 -175 0
-38 -217 0
-38 -79 0
-175 -217 0
-79 -175 0
-79 -217 0
-101 -242 0
-242 -250 0
-197 -242 0
-220 -242 0
-144 -242 0
-101 -250 0
-101 -197 0
-101 -220 0
-101 -144 0
-197 -250 0
-220 -250 0
-144 -250 0
-197 -220 0
-144 -197 0
-144 -220 0
-95 -246 0
-35 -95 0
-95 -180 0
-58 -95 0
-95 -223 0
-35 -246 0
-180 -246 0
-58 -246 0
-223 -246 0
-35 -180 0
-35 -58 0
-35 -223 0
-58 -180 0
-180 -223 0
-58 -223 0
-23 -203 0
-74 -76 0
-65 -76 0
-65 -74 0
-61 -115 0
-51 -61 0
-61 -167 0
-47 -61 0
-61 -103 0
-51 -115 0
-115 -167 0
-47 -115 0
-103 -115 0
-51 -167 0
-47 -51 0
-51 -103 0
-47 -167 0
-103 -167 0
-47 -103 0
-226 -251 0
-34 -251 0
-30 -251 0
-22 -251 0
-183 -251 0
-34 -226 0
-30 -226 0
-22 -226 0
-183 -226 0
-30 -34 0
-22 -34 0
-34 -183 0
-22 -30 0
-30 -183 0
-22 -183 0
-198 -252 0
-200 -252 0
-252 -253 0
-205 -252 0
-147 -252 0
-198 -200 0
-198 -253 0
-198 -205 0
-147 -198 0
-200 -253 0
-200 -205 0
-147 -200 0
-205 -253 0
-147 -253 0
-147 -205 0
-85 -88 0
-88 -136 0
-88 -244 0
-88 -97 0
-85 -136 0
-85 -244 0
-85 -97 0
-136 -244 0
-97 -136 0
-97 -244 0
-170 -245 0
-111 -170 0
-168 -170 0
-170 -248 0
-111 -245 0
-168 -245 0
-245 -248 0
-111 -168 0
-111 -248 0
-168 -248 0
-61 -251 0
-61 -252 0
-251 -252 0
-115 -226 0
-115 -198 0
-88 -115 0
-115 -170 0
-198 -226 0
-88 -226 0
-170 -226 0
-88 -198 0
-170 -198 0
-88 -170 0
-34 -51 0
-51 -200 0
-51 -85 0
-51 -245 0
-34 -200 0
-34 -85 0
-34 -245 0
-85 -200 0
-200 -245 0
-85 -245 0
-76 -167 0
-30 -76 0
-76 -253 0
-76 -136 0
-76 -111 0
-30 -167 0
-167 -253 0
-136 -167 0
-111 -167 0
-30 -253 0
-30 -136 0
-30 -111 0
-136 -253 0
-111 -253 0
-111 -136 0
-47 -74 0
-22 -74 0
-74 -205 0
-74 -244 0
-74 -168 0
-22 -47 0
-47 -205 0
-47 -244 0
-47 -168 0
-22 -205 0
-22 -244 0
-22 -168 0
-205 -244 0
-168 -205 0
-168 -244 0
-65 -103 0
-65 -183 0
-65 -147 0
-65 -97 0
-65 -248 0
-103 -183 0
-103 -147 0
-97 -103 0
-103 -248 0
-147 -183 0
-97 -183 0
-183 -248 0
-97 -147 0
-147 -248 0
-97 -248 0
-53 -100 0
-100 -165 0
-100 -140 0
-53 -165 0
-53 -140 0
-140 -165 0
-171 -176 0
-132 -171 0
-171 -254 0
-132 -176 0
-176 -254 0
-132 -254 0
-84 -134 0
-50 -84 0
-84 -94 0
-44 -84 0
-50 -134 0
-94 -134 0
-44 -134 0
-50 -94 0
-44 -50 0
-44 -94 0
-71 -154 0
-33 -71 0
-29 -71 0
-71 -185 0
-33 -154 0
-29 -154 0
-154 -185 0
-29 -33 0
-33 -185 0
-29 -185 0
-113 -218 0
-56 -218 0
-218 -221 0
-92 -218 0
-56 -113 0
-113 -221 0
-92 -113 0
-56 -221 0
-56 -92 0
-92 -221 0
-255 -257 0
-195 -255 0
-239 -255 0
-255 -259 0
-195 -257 0
-239 -257 0
-257 -259 0
-195 -239 0
-195 -259 0
-239 -259 0
-100 -171 0
-53 -176 0
-53 -84 0
-53 -71 0
-53 -218 0
-53 -255 0
-84 -176 0
-71 -176 0
-176 -218 0
-176 -255 0
-71 -84 0
-84 -218 0
-84 -255 0
-71 -218 0
-71 -255 0
-218 -255 0
-132 -165 0
-134 -165 0
-154 -165 0
-113 -165 0
-165 -257 0
-132 -134 0
-132 -154 0
-113 -132 0
-132 -257 0
-134 -154 0
-113 -134 0
-134 -257 0
-113 -154 0
-154 -257 0
-113 -257 0
-140 -254 0
-50 -140 0
-33 -140 0
-56 -140 0
-140 -195 0
-50 -254 0
-33 -254 0
-56 -254 0
-195 -254 0
-33 -50 0
-50 -56 0
-50 -195 0
-33 -56 0
-33 -195 0
-56 -195 0
-29 -94 0
-94 -221 0
-94 -239 0
-29 -221 0
-29 -239 0
-221 -239 0
-44 -185 0
-44 -92 0
-44 -259 0
-92 -185 0
-185 -259 0
-92 -259 0
-262 -265 0
-81 -262 0
-159 -262 0
-262 -264 0
-43 -262 0
-81 -265 0
-159 -265 0
-264 -265 0
-43 -265 0
-81 -159 0
-81 -264 0
-43 -81 0
-159 -264 0
-43 -159 0
-43 -264 0
-128 -227 0
-227 -278 0
-227 -229 0
-90 -227 0
-227 -267 0
-128 -278 0
-128 -229 0
-90 -128 0
-128 -267 0
-229 -278 0
-90 -278 0
-267 -278 0
-90 -229 0
-229 -267 0
-90 -267 0
-124 -173 0
-124 -268 0
-124 -178 0
-124 -181 0
-70 -124 0
-173 -268 0
-173 -178 0
-173 -181 0
-70 -173 0
-178 -268 0
-181 -268 0
-70 -268 0
-178 -181 0
-70 -178 0
-70 -181 0
-216 -269 0
-60 -269 0
-59 -269 0
-54 -269 0
-60 -216 0
-59 -216 0
-54 -216 0
-59 -60 0
-54 -60 0
-54 -59 0
-40 -131 0
-131 -270 0
-37 -131 0
-131 -271 0
-40 -270 0
-37 -40 0
-40 -271 0
-37 -270 0
-270 -271 0
-37 -271 0
-211 -272 0
-214 -272 0
-211 -214 0
-227 -262 0
-124 -262 0
-262 -269 0
-131 -262 0
-262 -272 0
-124 -227 0
-227 -269 0
-131 -227 0
-227 -272 0
-124 -269 0
-124 -131 0
-124 -272 0
-131 -269 0
-269 -272 0
-131 -272 0
-128 -265 0
-173 -265 0
-216 -265 0
-40 -265 0
-211 -265 0
-128 -173 0
-128 -216 0
-40 -128 0
-128 -211 0
-173 -216 0
-40 -173 0
-173 -211 0
-40 -216 0
-211 -216 0
-40 -211 0
-81 -278 0
-81 -268 0
-60 -81 0
-81 -270 0
-81 -214 0
-268 -278 0
-60 -278 0
-270 -278 0
-214 -278 0
-60 -268 0
-268 -270 0
-214 -268 0
-60 -270 0
-60 -214 0
-214 -270 0
-159 -229 0
-159 -178 0
-59 -159 0
-37 -159 0
-178 -229 0
-59 -229 0
-37 -229 0
-59 -178 0
-37 -178 0
-37 -59 0
-90 -264 0
-181 -264 0
-54 -264 0
-264 -271 0
-90 -181 0
-54 -90 0
-90 -271 0
-54 -181 0
-181 -271 0
-54 -271 0
-43 -267 0
-43 -70 0
-70 -267 0
-114 -273 0
-125 -273 0
-93 -273 0
-138 -273 0
-98 -273 0
-122 -273 0
-114 -125 0
-93 -114 0
-114 -138 0
-98 -114 0
-114 -122 0
-93 -125 0
-125 -138 0
-98 -125 0
-122 -125 0
-93 -138 0
-93 -98 0
-93 -122 0
-98 -138 0
-122 -138 0
-98 -122 0
-120 -230 0
-36 -120 0
-24 -120 0
-120 -274 0
-120 -275 0
-120 -160 0
-36 -230 0
-24 -230 0
-230 -274 0
-230 -275 0
-160 -230 0
-24 -36 0
-36 -274 0
-36 -275 0
-36 -160 0
-24 -274 0
-24 -275 0
-24 -160 0
-274 -275 0
-160 -274 0
-160 -275 0
-156 -174 0
-156 -179 0
-156 -204 0
-126 -156 0
-148 -156 0
-63 -156 0
-174 -179 0
-174 -204 0
-126 -174 0
-148 -174 0
-63 -174 0
-179 -204 0
-126 -179 0
-148 -179 0
-63 -179 0
-126 -204 0
-148 -204 0
-63 -204 0
-126 -148 0
-63 -126 0
-63 -148 0
-57 -123 0
-57 -172 0
-46 -57 0
-57 -107 0
-123 -172 0
-46 -123 0
-107 -123 0
-46 -172 0
-107 -172 0
-46 -107 0
-193 -201 0
-193 -276 0
-193 -206 0
-193 -208 0
-201 -276 0
-201 -206 0
-201 -208 0
-206 -276 0
-208 -276 0
-206 -208 0
-212 -277 0
-261 -277 0
-266 -277 0
-80 -277 0
-212 -261 0
-212 -266 0
-80 -212 0
-261 -266 0
-80 -261 0
-80 -266 0
-158 -263 0
-158 -228 0
-127 -158 0
-158 -279 0
-228 -263 0
-127 -263 0
-263 -279 0
-127 -228 0
-228 -279 0
-127 -279 0
-120 -273 0
-156 -273 0
-273 -277 0
-158 -273 0
-120 -156 0
-120 -277 0
-120 -158 0
-156 -277 0
-156 -158 0
-158 -277 0
-114 -230 0
-114 -174 0
-114 -212 0
-114 -263 0
-174 -230 0
-212 -230 0
-230 -263 0
-174 -212 0
-174 -263 0
-212 -263 0
-36 -125 0
-125 -179 0
-57 -125 0
-125 -193 0
-36 -179 0
-36 -57 0
-36 -193 0
-57 -179 0
-179 -193 0
-57 -193 0
-24 -93 0
-93 -204 0
-93 -123 0
-93 -201 0
-24 -204 0
-24 -123 0
-24 -201 0
-123 -204 0
-201 -204 0
-123 -201 0
-138 -274 0
-126 -138 0
-138 -172 0
-138 -276 0
-138 -261 0
-138 -228 0
-126 -274 0
-172 -274 0
-274 -276 0
-261 -274 0
-228 -274 0
-126 -172 0
-126 -276 0
-126 -261 0
-126 -228 0
-172 -276 0
-172 -261 0
-172 -228 0
-261 -276 0
-228 -276 0
-228 -261 0
-98 -275 0
-98 -148 0
-46 -98 0
-98 -206 0
-98 -266 0
-98 -127 0
-148 -275 0
-46 -275 0
-206 -275 0
-266 -275 0
-127 -275 0
-46 -148 0
-148 -206 0
-148 -266 0
-127 -148 0
-46 -206 0
-46 -266 0
-46 -127 0
-206 -266 0
-127 -206 0
-127 -266 0
-122 -160 0
-63 -122 0
-107 -122 0
-122 -208 0
-80 -122 0
-122 -279 0
-63 -160 0
-107 -160 0
-160 -208 0
-80 -160 0
-160 -279 0
-63 -107 0
-63 -208 0
-63 -80 0
-63 -279 0
-107 -208 0
-80 -107 0
-107 -279 0
-80 -208 0
-208 -279 0
-80 -279 0
-105 -116 0
-87 -116 0
-116 -224 0
-87 -105 0
-105 -224 0
-87 -224 0
-146 -199 0
-69 -199 0
-62 -199 0
-69 -146 0
-62 -146 0
-62 -69 0
-28 -280 0
-99 -280 0
-189 -280 0
-28 -99 0
-28 -189 0
-99 -189 0
-110 -249 0
-110 -207 0
-110 -209 0
-207 -249 0
-209 -249 0
-207 -209 0
-119 -231 0
-25 -119 0
-25 -231 0
-116 -199 0
-110 -280 0
-105 -146 0
-28 -105 0
-105 -249 0
-105 -119 0
-28 -146 0
-146 -249 0
-119 -146 0
-28 -249 0
-28 -119 0
-119 -249 0
-69 -87 0
-87 -99 0
-87 -207 0
-87 -231 0
-69 -99 0
-69 -207 0
-69 -231 0
-99 -207 0
-99 -231 0
-207 -231 0
-62 -224 0
-189 -224 0
-209 -224 0
-25 -224 0
-62 -189 0
-62 -209 0
-25 -62 0
-189 -209 0
-25 -189 0
-25 -209 0
-72 -145 0
-145 -152 0
-145 -188 0
-145 -237 0
-72 -152 0
-72 -188 0
-72 -237 0
-152 -188 0
-152 -237 0
-188 -237 0
-141 -166 0
-166 -281 0
-75 -166 0
-67 -166 0
-141 -281 0
-75 -141 0
-67 -141 0
-75 -281 0
-67 -281 0
-67 -75 0
-219 -282 0
-112 -282 0
-55 -282 0
-49 -282 0
-91 -282 0
-137 -282 0
-112 -219 0
-55 -219 0
-49 -219 0
-91 -219 0
-137 -219 0
-55 -112 0
-49 -112 0
-91 -112 0
-112 -137 0
-49 -55 0
-55 -91 0
-55 -137 0
-49 -91 0
-49 -137 0
-91 -137 0
-118 -121 0
-121 -283 0
-68 -121 0
-32 -121 0
-27 -121 0
-121 -182 0
-118 -283 0
-68 -118 0
-32 -118 0
-27 -118 0
-118 -182 0
-68 -283 0
-32 -283 0
-27 -283 0
-182 -283 0
-32 -68 0
-27 -68 0
-68 -182 0
-27 -32 0
-32 -182 0
-27 -182 0
-191 -256 0
-191 -258 0
-191 -194 0
-191 -202 0
-191 -260 0
-77 -191 0
-256 -258 0
-194 -256 0
-202 -256 0
-256 -260 0
-77 -256 0
-194 -258 0
-202 -258 0
-258 -260 0
-77 -258 0
-194 -202 0
-194 -260 0
-77 -194 0
-202 -260 0
-77 -202 0
-77 -260 0
-21 -106 0
-83 -106 0
-104 -106 0
-106 -225 0
-21 -83 0
-21 -104 0
-21 -225 0
-83 -104 0
-83 -225 0
-104 -225 0
-184 -234 0
-184 -238 0
-20 -184 0
-19 -184 0
-234 -238 0
-20 -234 0
-19 -234 0
-20 -238 0
-19 -238 0
-19 -20 0
-145 -166 0
-145 -282 0
-121 -145 0
-145 -191 0
-106 -145 0
-145 -184 0
-166 -282 0
-121 -166 0
-166 -191 0
-106 -166 0
-166 -184 0
-121 -282 0
-191 -282 0
-106 -282 0
-184 -282 0
-121 -191 0
-106 -121 0
-121 -184 0
-106 -191 0
-184 -191 0
-106 -184 0
-72 -141 0
-72 -219 0
-72 -118 0
-72 -256 0
-21 -72 0
-72 -234 0
-141 -219 0
-118 -141 0
-141 -256 0
-21 -141 0
-141 -234 0
-118 -219 0
-219 -256 0
-21 -219 0
-219 -234 0
-118 -256 0
-21 -118 0
-118 -234 0
-21 -256 0
-234 -256 0
-21 -234 0
-152 -281 0
-112 -152 0
-152 -283 0
-152 -258 0
-83 -152 0
-152 -238 0
-112 -281 0
-281 -283 0
-258 -281 0
-83 -281 0
-238 -281 0
-112 -283 0
-112 -258 0
-83 -112 0
-112 -238 0
-258 -283 0
-83 -283 0
-238 -283 0
-83 -258 0
-238 -258 0
-83 -238 0
-55 -68 0
-55 -194 0
-55 -104 0
-20 -55 0
-68 -194 0
-68 -104 0
-20 -68 0
-104 -194 0
-20 -194 0
-20 -104 0
-32 -49 0
-49 -202 0
-49 -225 0
-19 -49 0
-32 -202 0
-32 -225 0
-19 -32 0
-202 -225 0
-19 -202 0
-19 -225 0
-75 -188 0
-91 -188 0
-27 -188 0
-188 -260 0
-75 -91 0
-27 -75 0
-75 -260 0
-27 -91 0
-91 -260 0
-27 -260 0
-67 -237 0
-137 -237 0
-182 -237 0
-77 -237 0
-67 -137 0
-67 -182 0
-67 -77 0
-137 -182 0
-77 -137 0
-77 -182 0
-18 -149 0
-129 -149 0
-89 -149 0
-41 -149 0
-18 -129 0
-18 -89 0
-18 -41 0
-89 -129 0
-41 -129 0
-41 -89 0
-157 -232 0
-162 -232 0
-17 -232 0
-161 -232 0
-157 -162 0
-17 -157 0
-157 -161 0
-17 -162 0
-161 -162 0
-17 -161 0
-15 -16 0
-16 -130 0
-16 -52 0
-16 -164 0
-16 -139 0
-16 -86 0
-15 -130 0
-15 -52 0
-15 -164 0
-15 -139 0
-15 -86 0
-52 -130 0
-130 -164 0
-130 -139 0
-86 -130 0
-52 -164 0
-52 -139 0
-52 -86 0
-139 -164 0
-86 -164 0
-86 -139 0
-39 -82 0
-66 -82 0
-14 -82 0
-31 -82 0
-26 -82 0
-82 -190 0
-39 -66 0
-14 -39 0
-31 -39 0
-26 -39 0
-39 -190 0
-14 -66 0
-31 -66 0
-26 -66 0
-66 -190 0
-14 -31 0
-14 -26 0
-14 -190 0
-26 -31 0
-31 -190 0
-26 -190 0
-13 -192 0
-192 -196 0
-177 -192 0
-133 -192 0
-12 -192 0
-192 -210 0
-13 -196 0
-13 -177 0
-13 -133 0
-12 -13 0
-13 -210 0
-177 -196 0
-133 -196 0
-12 -196 0
-196 -210 0
-133 -177 0
-12 -177 0
-177 -210 0
-12 -133 0
-133 -210 0
-12 -210 0
-10 -11 0
-9 -11 0
-11 -73 0
-11 -153 0
-9 -10 0
-10 -73 0
-10 -153 0
-9 -73 0
-9 -153 0
-73 -153 0
-186 -235 0
-186 -187 0
-186 -236 0
-8 -186 0
-187 -235 0
-235 -236 0
-8 -235 0
-187 -236 0
-8 -187 0
-8 -236 0
-16 -82 0
-16 -192 0
-11 -16 0
-16 -186 0
-82 -192 0
-11 -82 0
-82 -186 0
-11 -192 0
-186 -192 0
-11 -186 0
-15 -39 0
-13 -15 0
-10 -15 0
-15 -235 0
-13 -39 0
-10 -39 0
-39 -235 0
-10 -13 0
-13 -235 0
-10 -235 0
-149 -232 0
-130 -149 0
-66 -149 0
-149 -196 0
-9 -149 0
-149 -187 0
-130 -232 0
-66 -232 0
-196 -232 0
-9 -232 0
-187 -232 0
-66 -130 0
-130 -196 0
-9 -130 0
-130 -187 0
-66 -196 0
-9 -66 0
-66 -187 0
-9 -196 0
-187 -196 0
-9 -187 0
-18 -157 0
-18 -52 0
-14 -18 0
-18 -177 0
-18 -73 0
-18 -236 0
-52 -157 0
-14 -157 0
-157 -177 0
-73 -157 0
-157 -236 0
-14 -52 0
-52 -177 0
-52 -73 0
-52 -236 0
-14 -177 0
-14 -73 0
-14 -236 0
-73 -177 0
-177 -236 0
-73 -236 0
-129 -162 0
-129 -164 0
-31 -129 0
-129 -133 0
-129 -153 0
-8 -129 0
-162 -164 0
-31 -162 0
-133 -162 0
-153 -162 0
-8 -162 0
-31 -164 0
-133 -164 0
-153 -164 0
-8 -164 0
-31 -133 0
-31 -153 0
-8 -31 0
-133 -153 0
-8 -133 0
-8 -153 0
-17 -89 0
-89 -139 0
-26 -89 0
-12 -89 0
-17 -139 0
-17 -26 0
-12 -17 0
-26 -139 0
-12 -139 0
-12 -26 0
-41 -161 0
-41 -86 0
-41 -190 0
-41 -210 0
-86 -161 0
-161 -190 0
-161 -210 0
-86 -190 0
-86 -210 0
-190 -210 0
-7 -117 0
-7 -143 0
-7 -222 0
-7 -78 0
-117 -143 0
-117 -222 0
-78 -117 0
-143 -222 0
-78 -143 0
-78 -222 0
-142 -155 0
-6 -142 0
-5 -142 0
-142 -151 0
-6 -155 0
-5 -155 0
-151 -155 0
-5 -6 0
-6 -151 0
-5 -151 0
-45 -48 0
-42 -48 0
-42 -45 0
-4 -215 0
-4 -150 0
-3 -4 0
-2 -4 0
-150 -215 0
-3 -215 0
-2 -215 0
-3 -150 0
-2 -150 0
-2 -3 0
-163 -233 0
-233 -240 0
-233 -241 0
-1 -233 0
-163 -240 0
-163 -241 0
-1 -163 0
-240 -241 0
-1 -240 0
-1 -241 0
-7 -142 0
-4 -7 0
-7 -233 0
-4 -142 0
-142 -233 0
-4 -233 0
-117 -155 0
-117 -215 0
-117 -163 0
-155 -215 0
-155 -163 0
-163 -215 0
-6 -143 0
-48 -143 0
-143 -150 0
-143 -240 0
-6 -48 0
-6 -150 0
-6 -240 0
-48 -150 0
-48 -240 0
-150 -240 0
-5 -222 0
-45 -222 0
-3 -222 0
-222 -241 0
-5 -45 0
-3 -5 0
-5 -241 0
-3 -45 0
-45 -241 0
-3 -241 0
-78 -151 0
-42 -78 0
-2 -78 0
-1 -78 0
-42 -151 0
-2 -151 0
-1 -151 0
-2 -42 0
-1 -42 0
-1 -2 0
-96 -243 0
-169 -243 0
-243 -247 0
-96 -169 0
-96 -247 0
-169 -247 0
-100 -171 0
-262 -265 0
-81 -262 0
-227 -262 0
-128 -262 0
-262 -278 0
-124 -262 0
-173 -262 0
-262 -268 0
-81 -265 0
-227 -265 0
-128 -265 0
-265 -278 0
-124 -265 0
-173 -265 0
-265 -268 0
-81 -227 0
-81 -128 0
-81 -278 0
-81 -124 0
-81 -173 0
-81 -268 0
-128 -227 0
-227 -278 0
-124 -227 0
-173 -227 0
-227 -268 0
-128 -278 0
-124 -128 0
-128 -173 0
-128 -268 0
-124 -278 0
-173 -278 0
-268 -278 0
-124 -173 0
-124 -268 0
-173 -268 0
-114 -273 0
-120 -273 0
-230 -273 0
-156 -273 0
-174 -273 0
-114 -120 0
-114 -230 0
-114 -156 0
-114 -174 0
-120 -230 0
-120 -156 0
-120 -174 0
-156 -230 0
-174 -230 0
-156 -174 0
-116 -199 0
-72 -145 0
-145 -152 0
-145 -166 0
-141 -145 0
-145 -281 0
-72 -152 0
-72 -166 0
-72 -141 0
-72 -281 0
-152 -166 0
-141 -152 0
-152 -281 0
-141 -166 0
-166 -281 0
-141 -281 0
-7 -117 0
-7 -142 0
-7 -155 0
-117 -142 0
-117 -155 0
-142 -155 0
-135 -242 0
-95 -135 0
-109 -135 0
-101 -135 0
-135 -246 0
-95 -242 0
-109 -242 0
-101 -242 0
-242 -246 0
-95 -109 0
-95 -101 0
-95 -246 0
-101 -109 0
-109 -246 0
-101 -246 0
-53 -165 0
-53 -140 0
-53 -176 0
-53 -132 0
-53 -254 0
-140 -165 0
-165 -176 0
-132 -165 0
-165 -254 0
-140 -176 0
-132 -140 0
-140 -254 0
-132 -176 0
-176 -254 0
-132 -254 0
-159 -264 0
-159 -229 0
-90 -159 0
-159 -178 0
-159 -181 0
-229 -264 0
-90 -264 0
-178 -264 0
-181 -264 0
-90 -229 0
-178 -229 0
-181 -229 0
-90 -178 0
-90 -181 0
-178 -181 0
-93 -125 0
-36 -125 0
-24 -125 0
-125 -179 0
-125 -204 0
-36 -93 0
-24 -93 0
-93 -179 0
-93 -204 0
-24 -36 0
-36 -179 0
-36 -204 0
-24 -179 0
-24 -204 0
-179 -204 0
-18 -149 0
-129 -149 0
-149 -232 0
-149 -157 0
-149 -162 0
-18 -129 0
-18 -232 0
-18 -157 0
-18 -162 0
-129 -232 0
-129 -157 0
-129 -162 0
-157 -232 0
-162 -232 0
-157 -162 0
-74 -76 0
-65 -76 0
-65 -74 0
-43 -267 0
-43 -70 0
-70 -267 0
-98 -138 0
-122 -138 0
-138 -274 0
-138 -275 0
-138 -160 0
-126 -138 0
-138 -148 0
-63 -138 0
-98 -122 0
-98 -274 0
-98 -275 0
-98 -160 0
-98 -126 0
-98 -148 0
-63 -98 0
-122 -274 0
-122 -275 0
-122 -160 0
-122 -126 0
-122 -148 0
-63 -122 0
-274 -275 0
-160 -274 0
-126 -274 0
-148 -274 0
-63 -274 0
-160 -275 0
-126 -275 0
-148 -275 0
-63 -275 0
-126 -160 0
-148 -160 0
-63 -160 0
-126 -148 0
-63 -126 0
-63 -148 0
-87 -105 0
-105 -224 0
-105 -146 0
-69 -105 0
-62 -105 0
-87 -224 0
-87 -146 0
-69 -87 0
-62 -87 0
-146 -224 0
-69 -224 0
-62 -224 0
-69 -146 0
-62 -146 0
-62 -69 0
-188 -237 0
-75 -188 0
-67 -188 0
-75 -237 0
-67 -237 0
-67 -75 0
-41 -89 0
-17 -89 0
-89 -161 0
-17 -41 0
-41 -161 0
-17 -161 0
-143 -222 0
-78 -143 0
-6 -143 0
-5 -143 0
-143 -151 0
-78 -222 0
-6 -222 0
-5 -222 0
-151 -222 0
-6 -78 0
-5 -78 0
-78 -151 0
-5 -6 0
-6 -151 0
-5 -151 0
-61 -251 0
-61 -252 0
-251 -252 0
-216 -269 0
-60 -269 0
-131 -269 0
-40 -269 0
-269 -270 0
-60 -216 0
-131 -216 0
-40 -216 0
-216 -270 0
-60 -131 0
-40 -60 0
-60 -270 0
-40 -131 0
-131 -270 0
-40 -270 0
-219 -282 0
-112 -282 0
-121 -282 0
-118 -282 0
-282 -283 0
-191 -282 0
-256 -282 0
-258 -282 0
-112 -219 0
-121 -219 0
-118 -219 0
-219 -283 0
-191 -219 0
-219 -256 0
-219 -258 0
-112 -121 0
-112 -118 0
-112 -283 0
-112 -191 0
-112 -256 0
-112 -258 0
-118 -121 0
-121 -283 0
-121 -191 0
-121 -256 0
-121 -258 0
-118 -283 0
-118 -191 0
-118 -256 0
-118 -258 0
-191 -283 0
-256 -283 0
-258 -283 0
-191 -256 0
-191 -258 0
-256 -258 0
-15 -16 0
-16 -82 0
-16 -39 0
-16 -192 0
-13 -16 0
-15 -82 0
-15 -39 0
-15 -192 0
-13 -15 0
-39 -82 0
-82 -192 0
-13 -82 0
-39 -192 0
-13 -39 0
-13 -192 0
-38 -250 0
-35 -38 0
-38 -175 0
-38 -197 0
-38 -180 0
-35 -250 0
-175 -250 0
-197 -250 0
-180 -250 0
-35 -175 0
-35 -197 0
-35 -180 0
-175 -197 0
-175 -180 0
-180 -197 0
-51 -115 0
-115 -226 0
-34 -115 0
-115 -198 0
-115 -200 0
-51 -226 0
-34 -51 0
-51 -198 0
-51 -200 0
-34 -226 0
-198 -226 0
-200 -226 0
-34 -198 0
-34 -200 0
-198 -200 0
-84 -134 0
-50 -84 0
-71 -84 0
-84 -154 0
-33 -84 0
-50 -134 0
-71 -134 0
-134 -154 0
-33 -134 0
-50 -71 0
-50 -154 0
-33 -50 0
-71 -154 0
-33 -71 0
-33 -154 0
-54 -59 0
-37 -59 0
-59 -271 0
-37 -54 0
-54 -271 0
-37 -271 0
-57 -123 0
-57 -193 0
-57 -201 0
-123 -193 0
-123 -201 0
-193 -201 0
-110 -280 0
-49 -55 0
-55 -68 0
-32 -55 0
-55 -194 0
-55 -202 0
-49 -68 0
-32 -49 0
-49 -194 0
-49 -202 0
-32 -68 0
-68 -194 0
-68 -202 0
-32 -194 0
-32 -202 0
-194 -202 0
-52 -130 0
-130 -164 0
-66 -130 0
-14 -130 0
-31 -130 0
-130 -196 0
-130 -177 0
-130 -133 0
-52 -164 0
-52 -66 0
-14 -52 0
-31 -52 0
-52 -196 0
-52 -177 0
-52 -133 0
-66 -164 0
-14 -164 0
-31 -164 0
-164 -196 0
-164 -177 0
-133 -164 0
-14 -66 0
-31 -66 0
-66 -196 0
-66 -177 0
-66 -133 0
-14 -31 0
-14 -196 0
-14 -177 0
-14 -133 0
-31 -196 0
-31 -177 0
-31 -133 0
-177 -196 0
-133 -196 0
-133 -177 0
-23 -203 0
-47 -167 0
-103 -167 0
-30 -167 0
-22 -167 0
-167 -183 0
-167 -253 0
-167 -205 0
-147 -167 0
-47 -103 0
-30 -47 0
-22 -47 0
-47 -183 0
-47 -253 0
-47 -205 0
-47 -147 0
-30 -103 0
-22 -103 0
-103 -183 0
-103 -253 0
-103 -205 0
-103 -147 0
-22 -30 0
-30 -183 0
-30 -253 0
-30 -205 0
-30 -147 0
-22 -183 0
-22 -253 0
-22 -205 0
-22 -147 0
-183 -253 0
-183 -205 0
-147 -183 0
-205 -253 0
-147 -253 0
-147 -205 0
-44 -94 0
-29 -94 0
-94 -185 0
-29 -44 0
-44 -185 0
-29 -185 0
-46 -172 0
-107 -172 0
-172 -276 0
-172 -206 0
-172 -208 0
-46 -107 0
-46 -276 0
-46 -206 0
-46 -208 0
-107 -276 0
-107 -206 0
-107 -208 0
-206 -276 0
-208 -276 0
-206 -208 0
-28 -99 0
-28 -189 0
-28 -249 0
-28 -207 0
-28 -209 0
-99 -189 0
-99 -249 0
-99 -207 0
-99 -209 0
-189 -249 0
-189 -207 0
-189 -209 0
-207 -249 0
-209 -249 0
-207 -209 0
-91 -137 0
-27 -91 0
-91 -182 0
-91 -260 0
-77 -91 0
-27 -137 0
-137 -182 0
-137 -260 0
-77 -137 0
-27 -182 0
-27 -260 0
-27 -77 0
-182 -260 0
-77 -182 0
-77 -260 0
-86 -139 0
-26 -139 0
-139 -190 0
-12 -139 0
-139 -210 0
-26 -86 0
-86 -190 0
-12 -86 0
-86 -210 0
-26 -190 0
-12 -26 0
-26 -210 0
-12 -190 0
-190 -210 0
-12 -210 0
-45 -48 0
-42 -48 0
-42 -45 0
-64 -213 0
-64 -108 0
-64 -102 0
-108 -213 0
-102 -213 0
-102 -108 0
-211 -272 0
-214 -272 0
-211 -214 0
-212 -277 0
-158 -277 0
-263 -277 0
-158 -212 0
-212 -263 0
-158 -263 0
-21 -106 0
-83 -106 0
-106 -184 0
-106 -234 0
-106 -238 0
-21 -83 0
-21 -184 0
-21 -234 0
-21 -238 0
-83 -184 0
-83 -234 0
-83 -238 0
-184 -234 0
-184 -238 0
-234 -238 0
-10 -11 0
-11 -186 0
-11 -235 0
-10 -186 0
-10 -235 0
-186 -235 0
-4 -215 0
-4 -233 0
-4 -163 0
-215 -233 0
-163 -215 0
-163 -233 0
-217 -220 0
-58 -217 0
-79 -217 0
-144 -217 0
-217 -223 0
-58 -220 0
-79 -220 0
-144 -220 0
-220 -223 0
-58 -79 0
-58 -144 0
-58 -223 0
-79 -144 0
-79 -223 0
-144 -223 0
-85 -88 0
-88 -170 0
-88 -245 0
-85 -170 0
-85 -245 0
-170 -245 0
-113 -218 0
-56 -218 0
-218 -255 0
-218 -257 0
-195 -218 0
-56 -113 0
-113 -255 0
-113 -257 0
-113 -195 0
-56 -255 0
-56 -257 0
-56 -195 0
-255 -257 0
-195 -255 0
-195 -257 0
-104 -225 0
-20 -104 0
-19 -104 0
-20 -225 0
-19 -225 0
-19 -20 0
-9 -73 0
-9 -153 0
-9 -187 0
-9 -236 0
-8 -9 0
-73 -153 0
-73 -187 0
-73 -236 0
-8 -73 0
-153 -187 0
-153 -236 0
-8 -153 0
-187 -236 0
-8 -187 0
-8 -236 0
-136 -244 0
-97 -136 0
-111 -136 0
-136 -168 0
-136 -248 0
-97 -244 0
-111 -244 0
-168 -244 0
-244 -248 0
-97 -111 0
-97 -168 0
-97 -248 0
-111 -168 0
-111 -248 0
-168 -248 0
-92 -221 0
-221 -239 0
-221 -259 0
-92 -239 0
-92 -259 0
-239 -259 0
-261 -266 0
-80 -261 0
-228 -261 0
-127 -261 0
-261 -279 0
-80 -266 0
-228 -266 0
-127 -266 0
-266 -279 0
-80 -228 0
-80 -127 0
-80 -279 0
-127 -228 0
-228 -279 0
-127 -279 0
-119 -231 0
-25 -119 0
-25 -231 0
-3 -150 0
-2 -150 0
-150 -240 0
-150 -241 0
-1 -150 0
-2 -3 0
-3 -240 0
-3 -241 0
-1 -3 0
-2 -240 0
-2 -241 0
-1 -2 0
-240 -241 0
-1 -240 0
-1 -241 0
